proyfinal/src/viki/013/experimentInOfficeAgust.take6.output/dd8e775a-0633-4b34-8a34-d664a78fb32b.als.dat
{'cnf.clauses': '118081',
 'cnf.totvars': '69608',
 'conflict literals': '4',
 'conflicts': '4',
 'decisions': '1998',
 'memused.mb': '15.32',
 'outcome': 'UNSAT',
 'propagations': '22598',
 'restarts': '1',
 'solver.msecs': 34,
 'task.msecs': 89}
