proyfinal/src/viki/013/experimentInOfficeAgust.take6.output/dd8e775a-0633-4b34-8a34-d664a78fb32b.als.out
Reading from standard input... Use '--help' for help.
============================[ Problem Statistics ]=============================
|                                                                             |
|  Number of variables:         69608                                         |
|  Number of clauses:          118081                                         |
|  Parse time:                   0.03 s                                       |
|                                                                             |
============================[ Search Statistics ]==============================
| Conflicts |          ORIGINAL         |          LEARNT          | Progress |
|           |    Vars  Clauses Literals |    Limit  Clauses Lit/Cl |          |
===============================================================================
===============================================================================
restarts              : 1
conflicts             : 4              (116 /sec)
decisions             : 1998           (0.00 % random) (58171 /sec)
propagations          : 22598          (657932 /sec)
conflict literals     : 4              (0.00 % deleted)
Memory used           : 15.32 MB
CPU time              : 0.034347 s

UNSATISFIABLE
